data/lp_files/pEFS/56_1.lp
\ Model foo
\ LP format - for model browsing. Use MPS format to capture full model detail.
Minimize
  z
Subject To
 allocateEach[1]: x[1,1] + x[2,1] + x[3,1] = 1
 allocateEach[2]: x[1,2] + x[2,2] + x[3,2] = 1
 allocateEach[3]: x[1,3] + x[2,3] + x[3,3] = 1
 allocateEach[4]: x[1,4] + x[2,4] + x[3,4] = 1
 allocateEach[5]: x[1,5] + x[2,5] + x[3,5] = 1
 allocateEach[6]: x[1,6] + x[2,6] + x[3,6] = 1
 allocateEach[7]: x[1,7] + x[2,7] + x[3,7] = 1
 allocateEach[8]: x[1,8] + x[2,8] + x[3,8] = 1
 allocateEach[9]: x[1,9] + x[2,9] + x[3,9] = 1
 allocateEach[10]: x[1,10] + x[2,10] + x[3,10] = 1
 allocateEach[11]: x[1,11] + x[2,11] + x[3,11] = 1
 allocateEach[12]: x[1,12] + x[2,12] + x[3,12] = 1
 allocateEach[13]: x[1,13] + x[2,13] + x[3,13] = 1
 allocateEach[14]: x[1,14] + x[2,14] + x[3,14] = 1
 allocateEach[15]: x[1,15] + x[2,15] + x[3,15] = 1
 allocateEach[16]: x[1,16] + x[2,16] + x[3,16] = 1
 allocateAllCash: cashProportion[1] + cashProportion[2] + cashProportion[3]
   = 1
 findWorstP[1,2]: z + 0.0111135807957324 cashProportion[1]
   - 0.0111135807957324 cashProportion[2] + 0.0797955101133585 x[1,1]
   + 0.1089908868637475 x[1,2] + 0.0248833074016448 x[1,3]
   + 0.0682151589242054 x[1,4] + 0.0149255390086686 x[1,5]
   + 0.0318626361413648 x[1,6] + 0.0543120693487442 x[1,7]
   + 0.0655145587908424 x[1,8] + 0.0438319626583685 x[1,9]
   + 0.0873194043120694 x[1,10] + 0.1032340520115581 x[1,11]
   + 0.0223271838186264 x[1,12] + 0.076161369193154 x[1,13]
   + 0.0385196710380085 x[1,14] + 0.0627250500111136 x[1,15]
   + 0.1062680595687931 x[1,16] - 0.0797955101133585 x[2,1]
   - 0.1089908868637475 x[2,2] - 0.0248833074016448 x[2,3]
   - 0.0682151589242054 x[2,4] - 0.0149255390086686 x[2,5]
   - 0.0318626361413648 x[2,6] - 0.0543120693487442 x[2,7]
   - 0.0655145587908424 x[2,8] - 0.0438319626583685 x[2,9]
   - 0.0873194043120694 x[2,10] - 0.1032340520115581 x[2,11]
   - 0.0223271838186264 x[2,12] - 0.076161369193154 x[2,13]
   - 0.0385196710380085 x[2,14] - 0.0627250500111136 x[2,15]
   - 0.1062680595687931 x[2,16] >= 0
 findWorstP[1,3]: z + 0.0111135807957324 cashProportion[1]
   - 0.0111135807957324 cashProportion[3] + 0.0797955101133585 x[1,1]
   + 0.1089908868637475 x[1,2] + 0.0248833074016448 x[1,3]
   + 0.0682151589242054 x[1,4] + 0.0149255390086686 x[1,5]
   + 0.0318626361413648 x[1,6] + 0.0543120693487442 x[1,7]
   + 0.0655145587908424 x[1,8] + 0.0438319626583685 x[1,9]
   + 0.0873194043120694 x[1,10] + 0.1032340520115581 x[1,11]
   + 0.0223271838186264 x[1,12] + 0.076161369193154 x[1,13]
   + 0.0385196710380085 x[1,14] + 0.0627250500111136 x[1,15]
   + 0.1062680595687931 x[1,16] - 0.0797955101133585 x[3,1]
   - 0.1089908868637475 x[3,2] - 0.0248833074016448 x[3,3]
   - 0.0682151589242054 x[3,4] - 0.0149255390086686 x[3,5]
   - 0.0318626361413648 x[3,6] - 0.0543120693487442 x[3,7]
   - 0.0655145587908424 x[3,8] - 0.0438319626583685 x[3,9]
   - 0.0873194043120694 x[3,10] - 0.1032340520115581 x[3,11]
   - 0.0223271838186264 x[3,12] - 0.076161369193154 x[3,13]
   - 0.0385196710380085 x[3,14] - 0.0627250500111136 x[3,15]
   - 0.1062680595687931 x[3,16] >= 0
 findWorstP[2,1]: z - 0.0101348954585533 cashProportion[1]
   + 0.0101348954585533 cashProportion[2] - 0.0670321985628718 x[1,1]
   - 0.0694037641001733 x[1,2] - 0.0755252409571395 x[1,3]
   - 0.0829439844328006 x[1,4] - 0.0230366173772918 x[1,5]
   - 0.0794778501859753 x[1,6] - 0.0876871155074035 x[1,7]
   - 0.0474515805369468 x[1,8] - 0.0851432567473067 x[1,9]
   - 0.0329890847175911 x[1,10] - 0.0439043671264531 x[1,11]
   - 0.0626539237247768 x[1,12] - 0.0341444627998662 x[1,13]
   - 0.0665761282672369 x[1,14] - 0.0953186917876942 x[1,15]
   - 0.036576837709919 x[1,16] + 0.0670321985628718 x[2,1]
   + 0.0694037641001733 x[2,2] + 0.0755252409571395 x[2,3]
   + 0.0829439844328006 x[2,4] + 0.0230366173772918 x[2,5]
   + 0.0794778501859753 x[2,6] + 0.0876871155074035 x[2,7]
   + 0.0474515805369468 x[2,8] + 0.0851432567473067 x[2,9]
   + 0.0329890847175911 x[2,10] + 0.0439043671264531 x[2,11]
   + 0.0626539237247768 x[2,12] + 0.0341444627998662 x[2,13]
   + 0.0665761282672369 x[2,14] + 0.0953186917876942 x[2,15]
   + 0.036576837709919 x[2,16] >= 0
 findWorstP[2,3]: z + 0.0101348954585533 cashProportion[2]
   - 0.0101348954585533 cashProportion[3] + 0.0670321985628718 x[2,1]
   + 0.0694037641001733 x[2,2] + 0.0755252409571395 x[2,3]
   + 0.0829439844328006 x[2,4] + 0.0230366173772918 x[2,5]
   + 0.0794778501859753 x[2,6] + 0.0876871155074035 x[2,7]
   + 0.0474515805369468 x[2,8] + 0.0851432567473067 x[2,9]
   + 0.0329890847175911 x[2,10] + 0.0439043671264531 x[2,11]
   + 0.0626539237247768 x[2,12] + 0.0341444627998662 x[2,13]
   + 0.0665761282672369 x[2,14] + 0.0953186917876942 x[2,15]
   + 0.036576837709919 x[2,16] - 0.0670321985628718 x[3,1]
   - 0.0694037641001733 x[3,2] - 0.0755252409571395 x[3,3]
   - 0.0829439844328006 x[3,4] - 0.0230366173772918 x[3,5]
   - 0.0794778501859753 x[3,6] - 0.0876871155074035 x[3,7]
   - 0.0474515805369468 x[3,8] - 0.0851432567473067 x[3,9]
   - 0.0329890847175911 x[3,10] - 0.0439043671264531 x[3,11]
   - 0.0626539237247768 x[3,12] - 0.0341444627998662 x[3,13]
   - 0.0665761282672369 x[3,14] - 0.0953186917876942 x[3,15]
   - 0.036576837709919 x[3,16] >= 0
 findWorstP[3,1]: z - 0.0121128432476955 cashProportion[1]
   + 0.0121128432476955 cashProportion[3] - 0.0734280557675303 x[1,1]
   - 0.0401056239931199 x[1,2] - 0.0299792870380464 x[1,3]
   - 0.0923604297636784 x[1,4] - 0.0948799011591991 x[1,5]
   - 0.0121249560909432 x[1,6] - 0.0375134755381131 x[1,7]
   - 0.0729919934106133 x[1,8] - 0.1032256501568613 x[1,9]
   - 0.1050425766440157 x[1,10] - 0.0151773925893625 x[1,11]
   - 0.0722167714427608 x[1,12] - 0.0267209322044163 x[1,13]
   - 0.0654214663808036 x[1,14] - 0.1075499351962886 x[1,15]
   - 0.039148709376552 x[1,16] + 0.0734280557675303 x[3,1]
   + 0.0401056239931199 x[3,2] + 0.0299792870380464 x[3,3]
   + 0.0923604297636784 x[3,4] + 0.0948799011591991 x[3,5]
   + 0.0121249560909432 x[3,6] + 0.0375134755381131 x[3,7]
   + 0.0729919934106133 x[3,8] + 0.1032256501568613 x[3,9]
   + 0.1050425766440157 x[3,10] + 0.0151773925893625 x[3,11]
   + 0.0722167714427608 x[3,12] + 0.0267209322044163 x[3,13]
   + 0.0654214663808036 x[3,14] + 0.1075499351962886 x[3,15]
   + 0.039148709376552 x[3,16] >= 0
 findWorstP[3,2]: z - 0.0121128432476955 cashProportion[2]
   + 0.0121128432476955 cashProportion[3] - 0.0734280557675303 x[2,1]
   - 0.0401056239931199 x[2,2] - 0.0299792870380464 x[2,3]
   - 0.0923604297636784 x[2,4] - 0.0948799011591991 x[2,5]
   - 0.0121249560909432 x[2,6] - 0.0375134755381131 x[2,7]
   - 0.0729919934106133 x[2,8] - 0.1032256501568613 x[2,9]
   - 0.1050425766440157 x[2,10] - 0.0151773925893625 x[2,11]
   - 0.0722167714427608 x[2,12] - 0.0267209322044163 x[2,13]
   - 0.0654214663808036 x[2,14] - 0.1075499351962886 x[2,15]
   - 0.039148709376552 x[2,16] + 0.0734280557675303 x[3,1]
   + 0.0401056239931199 x[3,2] + 0.0299792870380464 x[3,3]
   + 0.0923604297636784 x[3,4] + 0.0948799011591991 x[3,5]
   + 0.0121249560909432 x[3,6] + 0.0375134755381131 x[3,7]
   + 0.0729919934106133 x[3,8] + 0.1032256501568613 x[3,9]
   + 0.1050425766440157 x[3,10] + 0.0151773925893625 x[3,11]
   + 0.0722167714427608 x[3,12] + 0.0267209322044163 x[3,13]
   + 0.0654214663808036 x[3,14] + 0.1075499351962886 x[3,15]
   + 0.039148709376552 x[3,16] >= 0
Bounds
 z <= 1
 -infinity <= cashProportion[1] <= 1
 -infinity <= cashProportion[2] <= 1
 -infinity <= cashProportion[3] <= 1
Binaries
 x[1,1] x[1,2] x[1,3] x[1,4] x[1,5] x[1,6] x[1,7] x[1,8] x[1,9] x[1,10]
 x[1,11] x[1,12] x[1,13] x[1,14] x[1,15] x[1,16] x[2,1] x[2,2] x[2,3]
 x[2,4] x[2,5] x[2,6] x[2,7] x[2,8] x[2,9] x[2,10] x[2,11] x[2,12] x[2,13]
 x[2,14] x[2,15] x[2,16] x[3,1] x[3,2] x[3,3] x[3,4] x[3,5] x[3,6] x[3,7]
 x[3,8] x[3,9] x[3,10] x[3,11] x[3,12] x[3,13] x[3,14] x[3,15] x[3,16]
End
