data/mps_files/pEFS/56_1.mps
NAME foo
ROWS
 N  OBJ
 E  allocateEach[1]
 E  allocateEach[2]
 E  allocateEach[3]
 E  allocateEach[4]
 E  allocateEach[5]
 E  allocateEach[6]
 E  allocateEach[7]
 E  allocateEach[8]
 E  allocateEach[9]
 E  allocateEach[10]
 E  allocateEach[11]
 E  allocateEach[12]
 E  allocateEach[13]
 E  allocateEach[14]
 E  allocateEach[15]
 E  allocateEach[16]
 E  allocateAllCash
 G  findWorstP[1,2]
 G  findWorstP[1,3]
 G  findWorstP[2,1]
 G  findWorstP[2,3]
 G  findWorstP[3,1]
 G  findWorstP[3,2]
COLUMNS
    z         OBJ       1
    z         findWorstP[1,2]  1
    z         findWorstP[1,3]  1
    z         findWorstP[2,1]  1
    z         findWorstP[2,3]  1
    z         findWorstP[3,1]  1
    z         findWorstP[3,2]  1
    cashProportion[1]  allocateAllCash  1
    cashProportion[1]  findWorstP[1,2]  1.1113580795732388e-02
    cashProportion[1]  findWorstP[1,3]  1.1113580795732388e-02
    cashProportion[1]  findWorstP[2,1]  -1.0134895458553346e-02
    cashProportion[1]  findWorstP[3,1]  -1.2112843247695534e-02
    cashProportion[2]  allocateAllCash  1
    cashProportion[2]  findWorstP[1,2]  -1.1113580795732388e-02
    cashProportion[2]  findWorstP[2,1]  1.0134895458553346e-02
    cashProportion[2]  findWorstP[2,3]  1.0134895458553346e-02
    cashProportion[2]  findWorstP[3,2]  -1.2112843247695534e-02
    cashProportion[3]  allocateAllCash  1
    cashProportion[3]  findWorstP[1,3]  -1.1113580795732388e-02
    cashProportion[3]  findWorstP[2,3]  -1.0134895458553346e-02
    cashProportion[3]  findWorstP[3,1]  1.2112843247695534e-02
    cashProportion[3]  findWorstP[3,2]  1.2112843247695534e-02
    MARKER    'MARKER'                 'INTORG'
    x[1,1]    allocateEach[1]  1
    x[1,1]    findWorstP[1,2]  7.9795510113358531e-02
    x[1,1]    findWorstP[1,3]  7.9795510113358531e-02
    x[1,1]    findWorstP[2,1]  -6.7032198562871834e-02
    x[1,1]    findWorstP[3,1]  -7.3428055767530323e-02
    x[1,2]    allocateEach[2]  1
    x[1,2]    findWorstP[1,2]  1.0899088686374751e-01
    x[1,2]    findWorstP[1,3]  1.0899088686374751e-01
    x[1,2]    findWorstP[2,1]  -0.0694037641001733
    x[1,2]    findWorstP[3,1]  -4.0105623993119913e-02
    x[1,3]    allocateEach[3]  1
    x[1,3]    findWorstP[1,2]  2.4883307401644812e-02
    x[1,3]    findWorstP[1,3]  2.4883307401644812e-02
    x[1,3]    findWorstP[2,1]  -7.5525240957139528e-02
    x[1,3]    findWorstP[3,1]  -2.9979287038046445e-02
    x[1,4]    allocateEach[4]  1
    x[1,4]    findWorstP[1,2]  6.8215158924205391e-02
    x[1,4]    findWorstP[1,3]  6.8215158924205391e-02
    x[1,4]    findWorstP[2,1]  -8.2943984432800585e-02
    x[1,4]    findWorstP[3,1]  -9.2360429763678434e-02
    x[1,5]    allocateEach[5]  1
    x[1,5]    findWorstP[1,2]  1.4925539008668595e-02
    x[1,5]    findWorstP[1,3]  1.4925539008668595e-02
    x[1,5]    findWorstP[2,1]  -2.3036617377291756e-02
    x[1,5]    findWorstP[3,1]  -9.4879901159199115e-02
    x[1,6]    allocateEach[6]  1
    x[1,6]    findWorstP[1,2]  3.1862636141364753e-02
    x[1,6]    findWorstP[1,3]  3.1862636141364753e-02
    x[1,6]    findWorstP[2,1]  -7.9477850185975335e-02
    x[1,6]    findWorstP[3,1]  -1.2124956090943228e-02
    x[1,7]    allocateEach[7]  1
    x[1,7]    findWorstP[1,2]  5.4312069348744177e-02
    x[1,7]    findWorstP[1,3]  5.4312069348744177e-02
    x[1,7]    findWorstP[2,1]  -8.7687115507403546e-02
    x[1,7]    findWorstP[3,1]  -3.7513475538113066e-02
    x[1,8]    allocateEach[8]  1
    x[1,8]    findWorstP[1,2]  6.5514558790842420e-02
    x[1,8]    findWorstP[1,3]  6.5514558790842420e-02
    x[1,8]    findWorstP[2,1]  -4.7451580536946765e-02
    x[1,8]    findWorstP[3,1]  -7.2991993410613284e-02
    x[1,9]    allocateEach[9]  1
    x[1,9]    findWorstP[1,2]  4.3831962658368528e-02
    x[1,9]    findWorstP[1,3]  4.3831962658368528e-02
    x[1,9]    findWorstP[2,1]  -8.5143256747306661e-02
    x[1,9]    findWorstP[3,1]  -1.0322565015686133e-01
    x[1,10]   allocateEach[10]  1
    x[1,10]   findWorstP[1,2]  8.7319404312069360e-02
    x[1,10]   findWorstP[1,3]  8.7319404312069360e-02
    x[1,10]   findWorstP[2,1]  -3.2989084717591141e-02
    x[1,10]   findWorstP[3,1]  -1.0504257664401566e-01
    x[1,11]   allocateEach[11]  1
    x[1,11]   findWorstP[1,2]  1.0323405201155814e-01
    x[1,11]   findWorstP[1,3]  1.0323405201155814e-01
    x[1,11]   findWorstP[2,1]  -4.3904367126453091e-02
    x[1,11]   findWorstP[3,1]  -1.5177392589362503e-02
    x[1,12]   allocateEach[12]  1
    x[1,12]   findWorstP[1,2]  2.2327183818626365e-02
    x[1,12]   findWorstP[1,3]  2.2327183818626365e-02
    x[1,12]   findWorstP[2,1]  -6.2653923724776781e-02
    x[1,12]   findWorstP[3,1]  -7.2216771442760758e-02
    x[1,13]   allocateEach[13]  1
    x[1,13]   findWorstP[1,2]  7.6161369193154041e-02
    x[1,13]   findWorstP[1,3]  7.6161369193154041e-02
    x[1,13]   findWorstP[2,1]  -3.4144462799866222e-02
    x[1,13]   findWorstP[3,1]  -2.6720932204416344e-02
    x[1,14]   allocateEach[14]  1
    x[1,14]   findWorstP[1,2]  3.8519671038008456e-02
    x[1,14]   findWorstP[1,3]  3.8519671038008456e-02
    x[1,14]   findWorstP[2,1]  -6.6576128267236939e-02
    x[1,14]   findWorstP[3,1]  -6.5421466380803581e-02
    x[1,15]   allocateEach[15]  1
    x[1,15]   findWorstP[1,2]  6.2725050011113587e-02
    x[1,15]   findWorstP[1,3]  6.2725050011113587e-02
    x[1,15]   findWorstP[2,1]  -9.5318691787694226e-02
    x[1,15]   findWorstP[3,1]  -1.0754993519628864e-01
    x[1,16]   allocateEach[16]  1
    x[1,16]   findWorstP[1,2]  1.0626805956879308e-01
    x[1,16]   findWorstP[1,3]  1.0626805956879308e-01
    x[1,16]   findWorstP[2,1]  -3.6576837709919027e-02
    x[1,16]   findWorstP[3,1]  -3.9148709376551960e-02
    x[2,1]    allocateEach[1]  1
    x[2,1]    findWorstP[1,2]  -7.9795510113358531e-02
    x[2,1]    findWorstP[2,1]  6.7032198562871834e-02
    x[2,1]    findWorstP[2,3]  6.7032198562871834e-02
    x[2,1]    findWorstP[3,2]  -7.3428055767530323e-02
    x[2,2]    allocateEach[2]  1
    x[2,2]    findWorstP[1,2]  -1.0899088686374751e-01
    x[2,2]    findWorstP[2,1]  0.0694037641001733
    x[2,2]    findWorstP[2,3]  0.0694037641001733
    x[2,2]    findWorstP[3,2]  -4.0105623993119913e-02
    x[2,3]    allocateEach[3]  1
    x[2,3]    findWorstP[1,2]  -2.4883307401644812e-02
    x[2,3]    findWorstP[2,1]  7.5525240957139528e-02
    x[2,3]    findWorstP[2,3]  7.5525240957139528e-02
    x[2,3]    findWorstP[3,2]  -2.9979287038046445e-02
    x[2,4]    allocateEach[4]  1
    x[2,4]    findWorstP[1,2]  -6.8215158924205391e-02
    x[2,4]    findWorstP[2,1]  8.2943984432800585e-02
    x[2,4]    findWorstP[2,3]  8.2943984432800585e-02
    x[2,4]    findWorstP[3,2]  -9.2360429763678434e-02
    x[2,5]    allocateEach[5]  1
    x[2,5]    findWorstP[1,2]  -1.4925539008668595e-02
    x[2,5]    findWorstP[2,1]  2.3036617377291756e-02
    x[2,5]    findWorstP[2,3]  2.3036617377291756e-02
    x[2,5]    findWorstP[3,2]  -9.4879901159199115e-02
    x[2,6]    allocateEach[6]  1
    x[2,6]    findWorstP[1,2]  -3.1862636141364753e-02
    x[2,6]    findWorstP[2,1]  7.9477850185975335e-02
    x[2,6]    findWorstP[2,3]  7.9477850185975335e-02
    x[2,6]    findWorstP[3,2]  -1.2124956090943228e-02
    x[2,7]    allocateEach[7]  1
    x[2,7]    findWorstP[1,2]  -5.4312069348744177e-02
    x[2,7]    findWorstP[2,1]  8.7687115507403546e-02
    x[2,7]    findWorstP[2,3]  8.7687115507403546e-02
    x[2,7]    findWorstP[3,2]  -3.7513475538113066e-02
    x[2,8]    allocateEach[8]  1
    x[2,8]    findWorstP[1,2]  -6.5514558790842420e-02
    x[2,8]    findWorstP[2,1]  4.7451580536946765e-02
    x[2,8]    findWorstP[2,3]  4.7451580536946765e-02
    x[2,8]    findWorstP[3,2]  -7.2991993410613284e-02
    x[2,9]    allocateEach[9]  1
    x[2,9]    findWorstP[1,2]  -4.3831962658368528e-02
    x[2,9]    findWorstP[2,1]  8.5143256747306661e-02
    x[2,9]    findWorstP[2,3]  8.5143256747306661e-02
    x[2,9]    findWorstP[3,2]  -1.0322565015686133e-01
    x[2,10]   allocateEach[10]  1
    x[2,10]   findWorstP[1,2]  -8.7319404312069360e-02
    x[2,10]   findWorstP[2,1]  3.2989084717591141e-02
    x[2,10]   findWorstP[2,3]  3.2989084717591141e-02
    x[2,10]   findWorstP[3,2]  -1.0504257664401566e-01
    x[2,11]   allocateEach[11]  1
    x[2,11]   findWorstP[1,2]  -1.0323405201155814e-01
    x[2,11]   findWorstP[2,1]  4.3904367126453091e-02
    x[2,11]   findWorstP[2,3]  4.3904367126453091e-02
    x[2,11]   findWorstP[3,2]  -1.5177392589362503e-02
    x[2,12]   allocateEach[12]  1
    x[2,12]   findWorstP[1,2]  -2.2327183818626365e-02
    x[2,12]   findWorstP[2,1]  6.2653923724776781e-02
    x[2,12]   findWorstP[2,3]  6.2653923724776781e-02
    x[2,12]   findWorstP[3,2]  -7.2216771442760758e-02
    x[2,13]   allocateEach[13]  1
    x[2,13]   findWorstP[1,2]  -7.6161369193154041e-02
    x[2,13]   findWorstP[2,1]  3.4144462799866222e-02
    x[2,13]   findWorstP[2,3]  3.4144462799866222e-02
    x[2,13]   findWorstP[3,2]  -2.6720932204416344e-02
    x[2,14]   allocateEach[14]  1
    x[2,14]   findWorstP[1,2]  -3.8519671038008456e-02
    x[2,14]   findWorstP[2,1]  6.6576128267236939e-02
    x[2,14]   findWorstP[2,3]  6.6576128267236939e-02
    x[2,14]   findWorstP[3,2]  -6.5421466380803581e-02
    x[2,15]   allocateEach[15]  1
    x[2,15]   findWorstP[1,2]  -6.2725050011113587e-02
    x[2,15]   findWorstP[2,1]  9.5318691787694226e-02
    x[2,15]   findWorstP[2,3]  9.5318691787694226e-02
    x[2,15]   findWorstP[3,2]  -1.0754993519628864e-01
    x[2,16]   allocateEach[16]  1
    x[2,16]   findWorstP[1,2]  -1.0626805956879308e-01
    x[2,16]   findWorstP[2,1]  3.6576837709919027e-02
    x[2,16]   findWorstP[2,3]  3.6576837709919027e-02
    x[2,16]   findWorstP[3,2]  -3.9148709376551960e-02
    x[3,1]    allocateEach[1]  1
    x[3,1]    findWorstP[1,3]  -7.9795510113358531e-02
    x[3,1]    findWorstP[2,3]  -6.7032198562871834e-02
    x[3,1]    findWorstP[3,1]  7.3428055767530323e-02
    x[3,1]    findWorstP[3,2]  7.3428055767530323e-02
    x[3,2]    allocateEach[2]  1
    x[3,2]    findWorstP[1,3]  -1.0899088686374751e-01
    x[3,2]    findWorstP[2,3]  -0.0694037641001733
    x[3,2]    findWorstP[3,1]  4.0105623993119913e-02
    x[3,2]    findWorstP[3,2]  4.0105623993119913e-02
    x[3,3]    allocateEach[3]  1
    x[3,3]    findWorstP[1,3]  -2.4883307401644812e-02
    x[3,3]    findWorstP[2,3]  -7.5525240957139528e-02
    x[3,3]    findWorstP[3,1]  2.9979287038046445e-02
    x[3,3]    findWorstP[3,2]  2.9979287038046445e-02
    x[3,4]    allocateEach[4]  1
    x[3,4]    findWorstP[1,3]  -6.8215158924205391e-02
    x[3,4]    findWorstP[2,3]  -8.2943984432800585e-02
    x[3,4]    findWorstP[3,1]  9.2360429763678434e-02
    x[3,4]    findWorstP[3,2]  9.2360429763678434e-02
    x[3,5]    allocateEach[5]  1
    x[3,5]    findWorstP[1,3]  -1.4925539008668595e-02
    x[3,5]    findWorstP[2,3]  -2.3036617377291756e-02
    x[3,5]    findWorstP[3,1]  9.4879901159199115e-02
    x[3,5]    findWorstP[3,2]  9.4879901159199115e-02
    x[3,6]    allocateEach[6]  1
    x[3,6]    findWorstP[1,3]  -3.1862636141364753e-02
    x[3,6]    findWorstP[2,3]  -7.9477850185975335e-02
    x[3,6]    findWorstP[3,1]  1.2124956090943228e-02
    x[3,6]    findWorstP[3,2]  1.2124956090943228e-02
    x[3,7]    allocateEach[7]  1
    x[3,7]    findWorstP[1,3]  -5.4312069348744177e-02
    x[3,7]    findWorstP[2,3]  -8.7687115507403546e-02
    x[3,7]    findWorstP[3,1]  3.7513475538113066e-02
    x[3,7]    findWorstP[3,2]  3.7513475538113066e-02
    x[3,8]    allocateEach[8]  1
    x[3,8]    findWorstP[1,3]  -6.5514558790842420e-02
    x[3,8]    findWorstP[2,3]  -4.7451580536946765e-02
    x[3,8]    findWorstP[3,1]  7.2991993410613284e-02
    x[3,8]    findWorstP[3,2]  7.2991993410613284e-02
    x[3,9]    allocateEach[9]  1
    x[3,9]    findWorstP[1,3]  -4.3831962658368528e-02
    x[3,9]    findWorstP[2,3]  -8.5143256747306661e-02
    x[3,9]    findWorstP[3,1]  1.0322565015686133e-01
    x[3,9]    findWorstP[3,2]  1.0322565015686133e-01
    x[3,10]   allocateEach[10]  1
    x[3,10]   findWorstP[1,3]  -8.7319404312069360e-02
    x[3,10]   findWorstP[2,3]  -3.2989084717591141e-02
    x[3,10]   findWorstP[3,1]  1.0504257664401566e-01
    x[3,10]   findWorstP[3,2]  1.0504257664401566e-01
    x[3,11]   allocateEach[11]  1
    x[3,11]   findWorstP[1,3]  -1.0323405201155814e-01
    x[3,11]   findWorstP[2,3]  -4.3904367126453091e-02
    x[3,11]   findWorstP[3,1]  1.5177392589362503e-02
    x[3,11]   findWorstP[3,2]  1.5177392589362503e-02
    x[3,12]   allocateEach[12]  1
    x[3,12]   findWorstP[1,3]  -2.2327183818626365e-02
    x[3,12]   findWorstP[2,3]  -6.2653923724776781e-02
    x[3,12]   findWorstP[3,1]  7.2216771442760758e-02
    x[3,12]   findWorstP[3,2]  7.2216771442760758e-02
    x[3,13]   allocateEach[13]  1
    x[3,13]   findWorstP[1,3]  -7.6161369193154041e-02
    x[3,13]   findWorstP[2,3]  -3.4144462799866222e-02
    x[3,13]   findWorstP[3,1]  2.6720932204416344e-02
    x[3,13]   findWorstP[3,2]  2.6720932204416344e-02
    x[3,14]   allocateEach[14]  1
    x[3,14]   findWorstP[1,3]  -3.8519671038008456e-02
    x[3,14]   findWorstP[2,3]  -6.6576128267236939e-02
    x[3,14]   findWorstP[3,1]  6.5421466380803581e-02
    x[3,14]   findWorstP[3,2]  6.5421466380803581e-02
    x[3,15]   allocateEach[15]  1
    x[3,15]   findWorstP[1,3]  -6.2725050011113587e-02
    x[3,15]   findWorstP[2,3]  -9.5318691787694226e-02
    x[3,15]   findWorstP[3,1]  1.0754993519628864e-01
    x[3,15]   findWorstP[3,2]  1.0754993519628864e-01
    x[3,16]   allocateEach[16]  1
    x[3,16]   findWorstP[1,3]  -1.0626805956879308e-01
    x[3,16]   findWorstP[2,3]  -3.6576837709919027e-02
    x[3,16]   findWorstP[3,1]  3.9148709376551960e-02
    x[3,16]   findWorstP[3,2]  3.9148709376551960e-02
    MARKER    'MARKER'                 'INTEND'
RHS
    RHS1      allocateEach[1]  1
    RHS1      allocateEach[2]  1
    RHS1      allocateEach[3]  1
    RHS1      allocateEach[4]  1
    RHS1      allocateEach[5]  1
    RHS1      allocateEach[6]  1
    RHS1      allocateEach[7]  1
    RHS1      allocateEach[8]  1
    RHS1      allocateEach[9]  1
    RHS1      allocateEach[10]  1
    RHS1      allocateEach[11]  1
    RHS1      allocateEach[12]  1
    RHS1      allocateEach[13]  1
    RHS1      allocateEach[14]  1
    RHS1      allocateEach[15]  1
    RHS1      allocateEach[16]  1
    RHS1      allocateAllCash  1
BOUNDS
 UP BND1      z         1
 MI BND1      cashProportion[1]
 UP BND1      cashProportion[1]  1
 MI BND1      cashProportion[2]
 UP BND1      cashProportion[2]  1
 MI BND1      cashProportion[3]
 UP BND1      cashProportion[3]  1
 BV BND1      x[1,1]  
 BV BND1      x[1,2]  
 BV BND1      x[1,3]  
 BV BND1      x[1,4]  
 BV BND1      x[1,5]  
 BV BND1      x[1,6]  
 BV BND1      x[1,7]  
 BV BND1      x[1,8]  
 BV BND1      x[1,9]  
 BV BND1      x[1,10] 
 BV BND1      x[1,11] 
 BV BND1      x[1,12] 
 BV BND1      x[1,13] 
 BV BND1      x[1,14] 
 BV BND1      x[1,15] 
 BV BND1      x[1,16] 
 BV BND1      x[2,1]  
 BV BND1      x[2,2]  
 BV BND1      x[2,3]  
 BV BND1      x[2,4]  
 BV BND1      x[2,5]  
 BV BND1      x[2,6]  
 BV BND1      x[2,7]  
 BV BND1      x[2,8]  
 BV BND1      x[2,9]  
 BV BND1      x[2,10] 
 BV BND1      x[2,11] 
 BV BND1      x[2,12] 
 BV BND1      x[2,13] 
 BV BND1      x[2,14] 
 BV BND1      x[2,15] 
 BV BND1      x[2,16] 
 BV BND1      x[3,1]  
 BV BND1      x[3,2]  
 BV BND1      x[3,3]  
 BV BND1      x[3,4]  
 BV BND1      x[3,5]  
 BV BND1      x[3,6]  
 BV BND1      x[3,7]  
 BV BND1      x[3,8]  
 BV BND1      x[3,9]  
 BV BND1      x[3,10] 
 BV BND1      x[3,11] 
 BV BND1      x[3,12] 
 BV BND1      x[3,13] 
 BV BND1      x[3,14] 
 BV BND1      x[3,15] 
 BV BND1      x[3,16] 
ENDATA
